(declare-fun x1_ack!138 () (_ BitVec 64))
(declare-fun x0_ack!142 () (_ BitVec 64))
(declare-fun y0_ack!139 () (_ BitVec 64))
(declare-fun x_ack!140 () (_ BitVec 64))
(declare-fun y_ack!141 () (_ BitVec 64))
(declare-fun FPCHECK_FSUB_ACCURACY ((_ BitVec 64) (_ BitVec 64)) Bool)
(assert (not (fp.geq ((_ to_fp 11 53) x0_ack!142) ((_ to_fp 11 53) x1_ack!138))))
(assert (not (fp.geq ((_ to_fp 11 53) y0_ack!139) ((_ to_fp 11 53) #x3ff0000000000000))))
(assert (not (fp.lt ((_ to_fp 11 53) x_ack!140) ((_ to_fp 11 53) x0_ack!142))))
(assert (not (fp.gt ((_ to_fp 11 53) x_ack!140) ((_ to_fp 11 53) x1_ack!138))))
(assert (not (fp.lt ((_ to_fp 11 53) y_ack!141) ((_ to_fp 11 53) y0_ack!139))))
(assert (not (fp.gt ((_ to_fp 11 53) y_ack!141) ((_ to_fp 11 53) #x3ff0000000000000))))
(assert (not (fp.lt ((_ to_fp 11 53) x_ack!140) ((_ to_fp 11 53) x0_ack!142))))
(assert (not (fp.geq ((_ to_fp 11 53) x_ack!140) ((_ to_fp 11 53) x1_ack!138))))
(assert (not (fp.lt ((_ to_fp 11 53) y_ack!141) ((_ to_fp 11 53) y0_ack!139))))
(assert (fp.geq ((_ to_fp 11 53) y_ack!141) ((_ to_fp 11 53) #x3ff0000000000000)))
(assert (FPCHECK_FSUB_ACCURACY #x3ff0000000000000 y0_ack!139))

(check-sat)
(exit)
